<number of tasks>
20

<cycle time>
1000

<order strength>
0,532


<task times>
1 330
2 430
3 503
4 187
5 126
6 223
7 332
8 430
9 369
10 299
11 74
12 114
13 497
14 111
15 135
16 71
17 269
18 96
19 176
20 68

<precedence relations>
1,4
1,17
1,18
1,19
2,4
2,5
2,7
3,6
4,10
5,8
5,10
5,11
6,9
6,10
6,11
7,8
7,9
8,12
8,13
8,14
9,12
9,14
11,13
11,15
11,20
12,15
14,16
15,17
16,18
16,19
16,20

<end>
